c FILE /home/rafael/Documents/HappySet/MIHS/inputs/happygen/output/graph_scale_free_k4_p0.4_v50_20241127_082432.txt
c SOURCE This is a scale-free graph formed for the happy graph colouring problem.
c DESCRIPTION It was generated using the problem generator of Rhyd Lewis
c
c GRAPH STATS
c Seed                             = -348816236
c Number of Nodes                  = 50
c Number of colours k              = 4
c Number of pre-assignments        = 20
c Number of links per new node     = 5
c Density                          = 0.191837
c 
c The degrees of nodes 1 to 50, respectively, are as follows 
c [33, 23, 20, 19, 17, 16, 16, 15, 15, 15, 14, 13, 13, 13, 12, 11, 10, 9, 9, 9, 8, 7, 7, 6, 6, 6, 
c  6, 6, 6, 6, 6, 6, 6, 6, 5, 5, 5, 5, 5, 5, 5, 5, 5, 5, 5, 5, 5, 5, 5, 5] 
c  
p edge 50 235 4
e 1 2
e 1 3
e 1 4
e 1 5
e 1 6
e 1 7
e 1 8
e 1 9
e 1 10
e 1 11
e 1 12
e 1 13
e 1 14
e 1 15
e 1 16
e 1 21
e 1 22
e 1 24
e 1 25
e 1 27
e 1 29
e 1 32
e 1 34
e 1 36
e 1 37
e 1 38
e 1 39
e 1 41
e 1 42
e 1 43
e 1 44
e 1 46
e 1 48
e 2 4
e 2 5
e 2 8
e 2 9
e 2 11
e 2 12
e 2 13
e 2 15
e 2 19
e 2 23
e 2 25
e 2 27
e 2 28
e 2 29
e 2 30
e 2 31
e 2 32
e 2 36
e 2 44
e 2 46
e 2 49
e 2 50
e 3 4
e 3 6
e 3 7
e 3 8
e 3 10
e 3 13
e 3 17
e 3 19
e 3 22
e 3 25
e 3 26
e 3 31
e 3 35
e 3 39
e 3 40
e 3 41
e 3 43
e 3 45
e 3 46
e 4 5
e 4 6
e 4 7
e 4 8
e 4 9
e 4 12
e 4 13
e 4 16
e 4 26
e 4 30
e 4 33
e 4 35
e 4 38
e 4 39
e 4 40
e 4 47
e 5 6
e 5 7
e 5 8
e 5 9
e 5 12
e 5 14
e 5 17
e 5 18
e 5 21
e 5 35
e 5 36
e 5 45
e 5 46
e 5 47
e 6 8
e 6 9
e 6 10
e 6 11
e 6 14
e 6 15
e 6 17
e 6 18
e 6 19
e 6 21
e 6 26
e 6 27
e 7 8
e 7 9
e 7 10
e 7 11
e 7 12
e 7 15
e 7 16
e 7 18
e 7 19
e 7 33
e 7 38
e 7 50
e 8 9
e 8 10
e 8 19
e 8 24
e 8 32
e 8 35
e 8 38
e 8 48
e 9 16
e 9 22
e 9 23
e 9 33
e 9 37
e 9 42
e 9 44
e 9 47
e 10 11
e 10 13
e 10 16
e 10 21
e 10 30
e 10 31
e 10 36
e 10 43
e 10 46
e 10 47
e 11 14
e 11 17
e 11 18
e 11 22
e 11 29
e 11 30
e 11 34
e 11 41
e 11 42
e 12 14
e 12 24
e 12 25
e 12 28
e 12 35
e 12 36
e 12 37
e 12 38
e 13 20
e 13 23
e 13 24
e 13 25
e 13 26
e 13 28
e 13 45
e 13 48
e 14 15
e 14 22
e 14 23
e 14 27
e 14 28
e 14 37
e 14 40
e 14 44
e 15 17
e 15 26
e 15 27
e 15 34
e 15 40
e 15 45
e 15 48
e 16 18
e 16 20
e 16 29
e 16 33
e 16 34
e 16 45
e 17 21
e 17 24
e 17 37
e 17 44
e 17 49
e 18 20
e 18 28
e 18 43
e 18 48
e 19 31
e 19 39
e 19 41
e 19 47
e 20 22
e 20 23
e 20 29
e 20 41
e 20 42
e 20 49
e 21 32
e 21 42
e 21 43
e 22 32
e 23 24
e 23 30
e 25 40
e 26 50
e 27 39
e 28 33
e 29 31
e 30 49
e 31 34
e 32 50
e 33 49
e 34 50
n 6 4
n 8 4
n 12 1
n 15 4
n 18 4
n 19 4
n 23 2
n 26 4
n 27 4
n 29 3
n 32 4
n 36 1
n 37 1
n 41 4
n 42 3
n 43 4
n 46 2
n 47 4
n 48 4
n 50 4
